77      4       
10      10      10      10      
0       0       0       0       0       20      2       3       4       5       6       7       9       10      11      12      13      14      15      16      17      18      20      21      27      
 28      
7       2       2       1       2       18      8       23      24      25      26      30      32      33      34      36      38      40      41      43      44      54      74      75      
6       4       3       5       4       14      23      29      40      42      44      46      51      52      53      54      67      73      74      75      
1       4       8       5       2       14      22      29      40      42      47      51      54      65      69      70      71      72      73      74      
10      6       5       5       5       15      32      33      38      43      44      45      46      50      51      52      54      66      67      71      72      
4       10      3       1       2       11      23      34      35      40      45      52      53      65      66      68      70      
7       5       6       9       2       15      31      34      39      44      47      48      51      52      53      64      66      73      74      75      76      
7       4       4       4       2       9       19      35      46      49      52      65      69      72      73      
9       7       3       10      5       17      38      43      44      48      50      51      62      64      67      68      69      70      71      72      73      74      76      
4       6       4       6       4       17      40      42      43      46      48      49      52      53      60      62      63      64      65      66      70      73      75      
5       3       7       5       6       13      37      40      43      44      46      48      49      51      52      67      71      72      75      
7       3       6       4       3       13      35      41      42      43      52      53      59      63      65      69      70      71      72      
8       4       3       5       6       14      42      43      44      46      48      49      51      54      57      59      62      66      67      73      
2       7       7       7       7       14      37      42      49      51      52      54      59      61      62      66      67      69      71      74      
4       1       5       4       4       13      40      42      46      48      51      54      57      62      65      66      67      68      73      
7       6       3       8       5       11      37      39      44      49      50      52      59      62      66      68      70      
10      3       6       6       4       14      42      46      48      50      53      59      60      62      64      67      68      69      74      75      
1       4       7       5       8       4       23      64      65      74      
9       4       7       4       5       12      42      48      50      57      59      60      62      63      66      67      68      70      
4       5       3       3       5       11      44      56      57      58      59      61      62      67      68      70      72      
1       4       2       3       7       8       42      43      44      48      57      59      60      64      
2       4       5       5       6       7       37      46      48      49      53      59      66      
7       5       6       5       3       11      48      49      58      59      60      61      62      63      69      71      72      
7       9       4       6       4       11      49      53      55      59      62      65      66      67      68      69      71      
8       3       10      2       2       10      42      48      57      60      61      63      66      67      69      70      
10      4       4       7       5       10      49      50      52      57      58      59      63      64      68      71      
6       7       3       7       2       10      48      49      57      58      61      63      66      70      71      75      
7       6       7       7       4       9       46      50      52      57      58      62      66      67      69      
10      7       1       3       3       8       43      56      57      60      62      64      66      68      
5       8       9       4       6       8       42      57      59      60      64      66      68      70      
3       6       5       6       8       6       43      49      57      59      60      62      
3       5       3       8       6       9       55      56      57      58      59      60      62      68      69      
10      6       3       3       7       7       53      56      59      60      61      65      69      
6       2       8       6       7       5       46      49      59      63      67      
5       7       6       7       5       5       48      51      58      61      64      
7       5       5       3       4       6       59      60      62      63      68      70      
9       3       9       4       5       4       57      60      63      64      
5       6       4       6       5       4       57      58      59      65      
8       4       5       4       5       4       55      58      60      61      
10      6       5       4       5       3       50      55      59      
10      5       8       3       3       3       48      57      62      
7       4       6       6       5       3       55      56      58      
3       4       10      4       6       3       55      58      61      
9       4       5       5       6       3       55      63      65      
10      5       4       5       3       2       48      64      
2       2       6       5       4       2       55      61      
10      7       6       7       9       2       62      67      
10      7       2       5       4       1       55      
7       4       3       6       7       1       56      
7       3       5       2       5       1       56      
8       4       2       3       6       1       60      
7       6       6       5       6       1       55      
9       4       10      6       8       1       57      
5       5       3       5       9       1       64      
4       5       3       6       7       1       77      
5       5       6       5       8       1       77      
4       5       6       6       9       1       77      
2       6       4       2       5       1       77      
9       4       6       7       6       1       77      
10      2       9       6       4       1       77      
5       10      5       2       5       1       77      
1       4       3       5       6       1       77      
2       8       5       4       4       1       77      
6       7       2       7       3       1       77      
6       5       1       5       4       1       77      
6       5       5       7       6       1       77      
9       5       3       8       2       1       77      
2       6       5       6       10      1       77      
10      4       4       2       4       1       77      
1       9       9       5       4       1       77      
6       5       5       3       5       1       77      
8       5       5       5       3       1       77      
1       7       4       6       2       1       77      
6       2       6       5       5       1       77      
4       4       3       6       7       1       77      
9       3       4       3       5       1       77      
0       0       0       0       0       0       
